\ LP format - for model browsing. Use MPS format to capture full model detail.
Minimize
  0 e
Subject To
 c: 2 c + d >= 1e-05
 c: 2 a + d <= 0
 c: a + b >= 0
Bounds
 a free
 b free
 c free
 d free
 e free
End
